1111100 AB
330 354 378 402 426 450 477 506 535 564 592 619 647 674 702 729 757 784 812 839 867 894 922 950 979 1007 1036 1065 1094 1123 1152 1181 1210 1239 1268 1297 1324 1351 1379 1407
1111100 BA
382 408 434 461 487 514 541 568 595 623 651 678 706 733 761 788 816 843 871 898 927 954 982 1011 1041 1069 1098 1127 1157 1186 1214 1242 1270 1296 1322 1349 1376 1402 1428
0000011 AB
330 363 395 429 464 499 526 554 582 610 638 665 693 720 748 775 803 830 858 887 916 945 973 1001 1030 1058 1086 1114 1142 1169 1197 1231 1265 1299 1332 1366 1400
0000011 BA
382 415 449 486 521 556 583 611 639 667 695 722 750 777 805 832 860 887 915 944 973 1002 1030 1058 1087 1115 1143 1171 1199 1226 1254 1286 1317 1351 1384 1418 12
